eprime/kakuro/solving_techniques/kakurocom/1-combo-ref.param
letting x_max be 3
letting y_max be 3

letting blanks be 
[
    [0,0,0],
    [0,1,1],
    [0,1,1]
]

letting vertsums be 
[
    [ 0, 5,16],
    [ 0, 0, 0],
    [ 0, 0, 0]

]

letting horzsums be 
[
    [ 0, 0, 0],
    [ 0, 0, 0],
    [12, 0, 0]

]